(set-info :original "/tmp/t/sanfoundry_02_true-unreach-call_ground.pp.ms.o.bc")
(set-info :authors "SeaHorn v.0.1.0-rc3")
(declare-rel verifier.error (Bool Bool Bool ))
(declare-rel main@entry (Int Int ))
(declare-rel main@bb9.i (Int Int Int (Array Int Int) Int ))
(declare-rel main@bb35.i (Int (Array Int Int) Int Int Int Int ))
(declare-rel main@bb70.i (Int (Array Int Int) Int Int Int Int ))
(declare-rel main@bb89.i (Int (Array Int Int) Int Int Int Int ))
(declare-rel main@verifier.error.split ())
(declare-var main@%_2_0 Int )
(declare-var @nd_char_0 Int )
(declare-var main@%tmp14.i_0 Int )
(declare-var main@%tmp16.i_0 Int )
(declare-var main@%tmp61.i_0 Int )
(declare-var main@%tmp62.i_0 Int )
(declare-var main@%tmp58.i_0 Bool )
(declare-var main@%tmp41.i_0 Int )
(declare-var main@%tmp42.i_0 Int )
(declare-var main@%tmp43.i_0 Int )
(declare-var main@%tmp45.i_0 Bool )
(declare-var main@%largest1.2.i_3 Int )
(declare-var main@%largest2.3.i_3 Int )
(declare-var main@%tmp76.i_0 Int )
(declare-var main@%tmp77.i_0 Int )
(declare-var main@%tmp78.i_0 Int )
(declare-var main@%tmp80.i_0 Bool )
(declare-var main@%tmp102.i_0 Int )
(declare-var main@%tmp103.i_0 Int )
(declare-var main@%tmp104.i_0 Int )
(declare-var main@%tmp106.i_0 Bool )
(declare-var main@%tmp95.i_0 Int )
(declare-var main@%tmp96.i_0 Int )
(declare-var main@%tmp97.i_0 Int )
(declare-var main@%tmp99.i_0 Bool )
(declare-var main@%tmp92.i_0 Bool )
(declare-var main@%tmp73.i_0 Bool )
(declare-var main@%tmp38.i_0 Bool )
(declare-var main@%tmp22.i_0 Int )
(declare-var main@%tmp24.i_0 Int )
(declare-var main@%tmp25.i_0 Int )
(declare-var main@%tmp29.i_0 Bool )
(declare-var main@%_4_0 Bool )
(declare-var main@%_5_0 Int )
(declare-var main@%tmp23.tmp26.v.i_0 Int )
(declare-var main@%tmp12.i_0 Bool )
(declare-var main@%_1_0 Int )
(declare-var @nd_0 Int )
(declare-var main@%tmp4.i_0 Bool )
(declare-var main@entry_0 Bool )
(declare-var main@%_0_0 (Array Int Int) )
(declare-var main@%tmp2.i_0 Int )
(declare-var main@%tmp8.i_0 Int )
(declare-var main@bb9.i_0 Bool )
(declare-var main@%shadow.mem.0_0 (Array Int Int) )
(declare-var main@%i.0.i_0 Int )
(declare-var main@%shadow.mem.0_1 (Array Int Int) )
(declare-var main@%i.0.i_1 Int )
(declare-var main@bb13.i_0 Bool )
(declare-var main@%_3_0 (Array Int Int) )
(declare-var main@%tmp19.i_0 Int )
(declare-var main@bb9.i_1 Bool )
(declare-var main@%shadow.mem.0_2 (Array Int Int) )
(declare-var main@%i.0.i_2 Int )
(declare-var main@bb20.i_0 Bool )
(declare-var main@%_6_0 Int )
(declare-var main@%tmp23.tmp26.i_0 Int )
(declare-var main@bb35.i_0 Bool )
(declare-var main@%largest1.1.i_0 Int )
(declare-var main@%i.1.i_0 Int )
(declare-var main@%largest2.1.i_0 Int )
(declare-var main@%largest1.1.i_1 Int )
(declare-var main@%i.1.i_1 Int )
(declare-var main@%largest2.1.i_1 Int )
(declare-var main@bb39.i_0 Bool )
(declare-var main@%tmp56.i_0 Int )
(declare-var main@bb52.i_0 Bool )
(declare-var main@bb59.i_0 Bool )
(declare-var main@%tmp63.i_0 Int )
(declare-var main@bb66.i_0 Bool )
(declare-var |tuple(main@bb52.i_0, main@bb66.i_0)| Bool )
(declare-var |tuple(main@bb39.i_0, main@bb66.i_0)| Bool )
(declare-var main@%largest1.2.i_0 Int )
(declare-var main@%largest2.3.i_0 Int )
(declare-var main@%largest1.2.i_1 Int )
(declare-var main@%largest2.3.i_1 Int )
(declare-var main@%largest1.2.i_2 Int )
(declare-var main@%largest2.3.i_2 Int )
(declare-var main@%tmp68.i_0 Int )
(declare-var main@bb35.i_1 Bool )
(declare-var main@%largest1.1.i_2 Int )
(declare-var main@%i.1.i_2 Int )
(declare-var main@%largest2.1.i_2 Int )
(declare-var main@bb70.i_0 Bool )
(declare-var main@%x.0.i_0 Int )
(declare-var main@%x.0.i_1 Int )
(declare-var main@bb74.i_0 Bool )
(declare-var main@bb85.i_0 Bool )
(declare-var main@%tmp87.i_0 Int )
(declare-var main@bb70.i_1 Bool )
(declare-var main@%x.0.i_2 Int )
(declare-var main@bb89.i_0 Bool )
(declare-var main@%x.1.i_0 Int )
(declare-var main@%x.1.i_1 Int )
(declare-var main@bb81.i_0 Bool )
(declare-var main@verifier.error_0 Bool )
(declare-var main@verifier.error.split_0 Bool )
(declare-var main@bb93.i_0 Bool )
(declare-var main@bb100.i_0 Bool )
(declare-var main@bb111.i_0 Bool )
(declare-var |tuple(main@bb100.i_0, main@bb111.i_0)| Bool )
(declare-var |tuple(main@bb93.i_0, main@bb111.i_0)| Bool )
(declare-var main@%tmp113.i_0 Int )
(declare-var main@bb89.i_1 Bool )
(declare-var main@%x.1.i_2 Int )
(declare-var main@bb107.i_0 Bool )
(rule (verifier.error false false false))
(rule (verifier.error false true true))
(rule (verifier.error true false true))
(rule (verifier.error true true true))
(rule (main@entry @nd_char_0 @nd_0))
(rule (=> (and (main@entry @nd_char_0 @nd_0)
         true
         (= main@%_1_0 @nd_0)
         (= main@%tmp4.i_0 (> main@%tmp2.i_0 0))
         main@%tmp4.i_0
         (> main@%tmp8.i_0 0)
         (=> main@bb9.i_0 (and main@bb9.i_0 main@entry_0))
         main@bb9.i_0
         (=> (and main@bb9.i_0 main@entry_0)
             (= main@%shadow.mem.0_0 main@%_0_0))
         (=> (and main@bb9.i_0 main@entry_0) (= main@%i.0.i_0 0))
         (=> (and main@bb9.i_0 main@entry_0)
             (= main@%shadow.mem.0_1 main@%shadow.mem.0_0))
         (=> (and main@bb9.i_0 main@entry_0) (= main@%i.0.i_1 main@%i.0.i_0)))
    (main@bb9.i @nd_char_0
                main@%tmp8.i_0
                main@%i.0.i_1
                main@%shadow.mem.0_1
                main@%tmp2.i_0)))
(rule (let ((a!1 (=> main@bb13.i_0
               (= main@%tmp16.i_0 (+ main@%tmp8.i_0 (* main@%i.0.i_0 1))))))
(let ((a!2 (and (main@bb9.i @nd_char_0
                            main@%tmp8.i_0
                            main@%i.0.i_0
                            main@%shadow.mem.0_0
                            main@%tmp2.i_0)
                true
                (= main@%tmp12.i_0 (< main@%i.0.i_0 main@%tmp2.i_0))
                (=> main@bb13.i_0 (and main@bb13.i_0 main@bb9.i_0))
                (=> (and main@bb13.i_0 main@bb9.i_0) main@%tmp12.i_0)
                (=> main@bb13.i_0 (= main@%_2_0 @nd_char_0))
                a!1
                (=> main@bb13.i_0
                    (or (<= main@%tmp8.i_0 0) (> main@%tmp16.i_0 0)))
                (=> main@bb13.i_0 (> main@%tmp8.i_0 0))
                (=> main@bb13.i_0
                    (= main@%_3_0
                       (store main@%shadow.mem.0_0
                              main@%tmp16.i_0
                              main@%tmp14.i_0)))
                (=> main@bb13.i_0 (= main@%tmp19.i_0 (+ main@%i.0.i_0 1)))
                (=> main@bb9.i_1 (and main@bb9.i_1 main@bb13.i_0))
                main@bb9.i_1
                (=> (and main@bb9.i_1 main@bb13.i_0)
                    (= main@%shadow.mem.0_1 main@%_3_0))
                (=> (and main@bb9.i_1 main@bb13.i_0)
                    (= main@%i.0.i_1 main@%tmp19.i_0))
                (=> (and main@bb9.i_1 main@bb13.i_0)
                    (= main@%shadow.mem.0_2 main@%shadow.mem.0_1))
                (=> (and main@bb9.i_1 main@bb13.i_0)
                    (= main@%i.0.i_2 main@%i.0.i_1)))))
  (=> a!2
      (main@bb9.i @nd_char_0
                  main@%tmp8.i_0
                  main@%i.0.i_2
                  main@%shadow.mem.0_2
                  main@%tmp2.i_0)))))
(rule (let ((a!1 (=> main@bb20.i_0 (= main@%tmp24.i_0 (+ main@%tmp8.i_0 (* 1 1))))))
(let ((a!2 (and (main@bb9.i @nd_char_0
                            main@%tmp8.i_0
                            main@%i.0.i_0
                            main@%shadow.mem.0_0
                            main@%tmp2.i_0)
                true
                (= main@%tmp12.i_0 (< main@%i.0.i_0 main@%tmp2.i_0))
                (=> main@bb20.i_0 (and main@bb20.i_0 main@bb9.i_0))
                (=> (and main@bb20.i_0 main@bb9.i_0) (not main@%tmp12.i_0))
                (=> main@bb20.i_0
                    (= main@%tmp22.i_0
                       (select main@%shadow.mem.0_0 main@%tmp8.i_0)))
                a!1
                (=> main@bb20.i_0
                    (or (<= main@%tmp8.i_0 0) (> main@%tmp24.i_0 0)))
                (=> main@bb20.i_0 (> main@%tmp8.i_0 0))
                (=> main@bb20.i_0
                    (= main@%tmp25.i_0
                       (select main@%shadow.mem.0_0 main@%tmp24.i_0)))
                (=> main@bb20.i_0
                    (= main@%tmp29.i_0 (< main@%tmp22.i_0 main@%tmp25.i_0)))
                (=> main@bb20.i_0
                    (= main@%_4_0 (> main@%tmp22.i_0 main@%tmp25.i_0)))
                (=> main@bb20.i_0
                    (= main@%_5_0
                       (ite main@%_4_0 main@%tmp22.i_0 main@%tmp25.i_0)))
                (=> main@bb20.i_0 (= main@%_6_0 main@%_5_0))
                (=> main@bb20.i_0
                    (= main@%tmp23.tmp26.v.i_0
                       (ite main@%tmp29.i_0 main@%tmp22.i_0 main@%tmp25.i_0)))
                (=> main@bb20.i_0
                    (= main@%tmp23.tmp26.i_0 main@%tmp23.tmp26.v.i_0))
                (=> main@bb35.i_0 (and main@bb35.i_0 main@bb20.i_0))
                main@bb35.i_0
                (=> (and main@bb35.i_0 main@bb20.i_0)
                    (= main@%largest1.1.i_0 main@%_6_0))
                (=> (and main@bb35.i_0 main@bb20.i_0) (= main@%i.1.i_0 2))
                (=> (and main@bb35.i_0 main@bb20.i_0)
                    (= main@%largest2.1.i_0 main@%tmp23.tmp26.i_0))
                (=> (and main@bb35.i_0 main@bb20.i_0)
                    (= main@%largest1.1.i_1 main@%largest1.1.i_0))
                (=> (and main@bb35.i_0 main@bb20.i_0)
                    (= main@%i.1.i_1 main@%i.1.i_0))
                (=> (and main@bb35.i_0 main@bb20.i_0)
                    (= main@%largest2.1.i_1 main@%largest2.1.i_0)))))
  (=> a!2
      (main@bb35.i main@%tmp8.i_0
                   main@%shadow.mem.0_0
                   main@%i.1.i_1
                   main@%largest1.1.i_1
                   main@%largest2.1.i_1
                   main@%tmp2.i_0)))))
(rule (let ((a!1 (=> main@bb39.i_0
               (= main@%tmp41.i_0 (+ main@%tmp8.i_0 (* main@%i.1.i_0 1)))))
      (a!2 (=> main@bb59.i_0
               (= main@%tmp61.i_0 (+ main@%tmp8.i_0 (* main@%i.1.i_0 1))))))
(let ((a!3 (and (main@bb35.i main@%tmp8.i_0
                             main@%shadow.mem.0_0
                             main@%i.1.i_0
                             main@%largest1.1.i_0
                             main@%largest2.1.i_0
                             main@%tmp2.i_0)
                true
                (= main@%tmp38.i_0 (< main@%i.1.i_0 main@%tmp2.i_0))
                (=> main@bb39.i_0 (and main@bb39.i_0 main@bb35.i_0))
                (=> (and main@bb39.i_0 main@bb35.i_0) main@%tmp38.i_0)
                a!1
                (=> main@bb39.i_0
                    (or (<= main@%tmp8.i_0 0) (> main@%tmp41.i_0 0)))
                (=> main@bb39.i_0 (> main@%tmp8.i_0 0))
                (=> main@bb39.i_0
                    (= main@%tmp42.i_0
                       (select main@%shadow.mem.0_0 main@%tmp41.i_0)))
                (=> main@bb39.i_0 (= main@%tmp43.i_0 main@%tmp42.i_0))
                (=> main@bb39.i_0
                    (= main@%tmp45.i_0 (< main@%tmp43.i_0 main@%largest1.1.i_0)))
                (=> main@bb39.i_0 (= main@%tmp56.i_0 main@%tmp42.i_0))
                (=> main@bb52.i_0 (and main@bb52.i_0 main@bb39.i_0))
                (=> (and main@bb52.i_0 main@bb39.i_0) main@%tmp45.i_0)
                (=> main@bb52.i_0
                    (= main@%tmp58.i_0 (> main@%tmp56.i_0 main@%largest2.1.i_0)))
                (=> main@bb59.i_0 (and main@bb59.i_0 main@bb52.i_0))
                (=> (and main@bb59.i_0 main@bb52.i_0) main@%tmp58.i_0)
                a!2
                (=> main@bb59.i_0
                    (or (<= main@%tmp8.i_0 0) (> main@%tmp61.i_0 0)))
                (=> main@bb59.i_0 (> main@%tmp8.i_0 0))
                (=> main@bb59.i_0
                    (= main@%tmp62.i_0
                       (select main@%shadow.mem.0_0 main@%tmp61.i_0)))
                (=> main@bb59.i_0 (= main@%tmp63.i_0 main@%tmp62.i_0))
                (=> |tuple(main@bb52.i_0, main@bb66.i_0)| main@bb52.i_0)
                (=> |tuple(main@bb39.i_0, main@bb66.i_0)| main@bb39.i_0)
                (=> main@bb66.i_0
                    (or (and main@bb66.i_0 main@bb59.i_0)
                        (and main@bb52.i_0
                             |tuple(main@bb52.i_0, main@bb66.i_0)|)
                        (and main@bb39.i_0
                             |tuple(main@bb39.i_0, main@bb66.i_0)|)))
                (=> (and main@bb66.i_0 main@bb59.i_0)
                    (= main@%largest1.2.i_0 main@%largest1.1.i_0))
                (=> (and main@bb66.i_0 main@bb59.i_0)
                    (= main@%largest2.3.i_0 main@%tmp63.i_0))
                (=> (and main@bb52.i_0 |tuple(main@bb52.i_0, main@bb66.i_0)|)
                    (not main@%tmp58.i_0))
                (=> (and main@bb52.i_0 |tuple(main@bb52.i_0, main@bb66.i_0)|)
                    (= main@%largest1.2.i_1 main@%largest1.1.i_0))
                (=> (and main@bb52.i_0 |tuple(main@bb52.i_0, main@bb66.i_0)|)
                    (= main@%largest2.3.i_1 main@%largest2.1.i_0))
                (=> (and main@bb39.i_0 |tuple(main@bb39.i_0, main@bb66.i_0)|)
                    (not main@%tmp45.i_0))
                (=> (and main@bb39.i_0 |tuple(main@bb39.i_0, main@bb66.i_0)|)
                    (= main@%largest1.2.i_2 main@%tmp56.i_0))
                (=> (and main@bb39.i_0 |tuple(main@bb39.i_0, main@bb66.i_0)|)
                    (= main@%largest2.3.i_2 main@%largest1.1.i_0))
                (=> (and main@bb66.i_0 main@bb59.i_0)
                    (= main@%largest1.2.i_3 main@%largest1.2.i_0))
                (=> (and main@bb66.i_0 main@bb59.i_0)
                    (= main@%largest2.3.i_3 main@%largest2.3.i_0))
                (=> (and main@bb52.i_0 |tuple(main@bb52.i_0, main@bb66.i_0)|)
                    (= main@%largest1.2.i_3 main@%largest1.2.i_1))
                (=> (and main@bb52.i_0 |tuple(main@bb52.i_0, main@bb66.i_0)|)
                    (= main@%largest2.3.i_3 main@%largest2.3.i_1))
                (=> (and main@bb39.i_0 |tuple(main@bb39.i_0, main@bb66.i_0)|)
                    (= main@%largest1.2.i_3 main@%largest1.2.i_2))
                (=> (and main@bb39.i_0 |tuple(main@bb39.i_0, main@bb66.i_0)|)
                    (= main@%largest2.3.i_3 main@%largest2.3.i_2))
                (=> main@bb66.i_0 (= main@%tmp68.i_0 (+ main@%i.1.i_0 1)))
                (=> main@bb35.i_1 (and main@bb35.i_1 main@bb66.i_0))
                main@bb35.i_1
                (=> (and main@bb35.i_1 main@bb66.i_0)
                    (= main@%largest1.1.i_1 main@%largest1.2.i_3))
                (=> (and main@bb35.i_1 main@bb66.i_0)
                    (= main@%i.1.i_1 main@%tmp68.i_0))
                (=> (and main@bb35.i_1 main@bb66.i_0)
                    (= main@%largest2.1.i_1 main@%largest2.3.i_3))
                (=> (and main@bb35.i_1 main@bb66.i_0)
                    (= main@%largest1.1.i_2 main@%largest1.1.i_1))
                (=> (and main@bb35.i_1 main@bb66.i_0)
                    (= main@%i.1.i_2 main@%i.1.i_1))
                (=> (and main@bb35.i_1 main@bb66.i_0)
                    (= main@%largest2.1.i_2 main@%largest2.1.i_1)))))
  (=> a!3
      (main@bb35.i main@%tmp8.i_0
                   main@%shadow.mem.0_0
                   main@%i.1.i_2
                   main@%largest1.1.i_2
                   main@%largest2.1.i_2
                   main@%tmp2.i_0)))))
(rule (=> (and (main@bb35.i main@%tmp8.i_0
                      main@%shadow.mem.0_0
                      main@%i.1.i_0
                      main@%largest1.1.i_0
                      main@%largest2.1.i_0
                      main@%tmp2.i_0)
         true
         (= main@%tmp38.i_0 (< main@%i.1.i_0 main@%tmp2.i_0))
         (=> main@bb70.i_0 (and main@bb70.i_0 main@bb35.i_0))
         main@bb70.i_0
         (=> (and main@bb70.i_0 main@bb35.i_0) (not main@%tmp38.i_0))
         (=> (and main@bb70.i_0 main@bb35.i_0) (= main@%x.0.i_0 0))
         (=> (and main@bb70.i_0 main@bb35.i_0) (= main@%x.0.i_1 main@%x.0.i_0)))
    (main@bb70.i main@%tmp8.i_0
                 main@%shadow.mem.0_0
                 main@%largest1.1.i_0
                 main@%largest2.1.i_0
                 main@%x.0.i_1
                 main@%tmp2.i_0)))
(rule (let ((a!1 (=> main@bb74.i_0
               (= main@%tmp76.i_0 (+ main@%tmp8.i_0 (* main@%x.0.i_0 1))))))
(let ((a!2 (and (main@bb70.i main@%tmp8.i_0
                             main@%shadow.mem.0_0
                             main@%largest1.1.i_0
                             main@%largest2.1.i_0
                             main@%x.0.i_0
                             main@%tmp2.i_0)
                true
                (= main@%tmp73.i_0 (< main@%x.0.i_0 main@%tmp2.i_0))
                (=> main@bb74.i_0 (and main@bb74.i_0 main@bb70.i_0))
                (=> (and main@bb74.i_0 main@bb70.i_0) main@%tmp73.i_0)
                a!1
                (=> main@bb74.i_0
                    (or (<= main@%tmp8.i_0 0) (> main@%tmp76.i_0 0)))
                (=> main@bb74.i_0 (> main@%tmp8.i_0 0))
                (=> main@bb74.i_0
                    (= main@%tmp77.i_0
                       (select main@%shadow.mem.0_0 main@%tmp76.i_0)))
                (=> main@bb74.i_0 (= main@%tmp78.i_0 main@%tmp77.i_0))
                (=> main@bb74.i_0
                    (= main@%tmp80.i_0 (> main@%tmp78.i_0 main@%largest1.1.i_0)))
                (=> main@bb85.i_0 (and main@bb85.i_0 main@bb74.i_0))
                (=> (and main@bb85.i_0 main@bb74.i_0) (not main@%tmp80.i_0))
                (=> main@bb85.i_0 (= main@%tmp87.i_0 (+ main@%x.0.i_0 1)))
                (=> main@bb70.i_1 (and main@bb70.i_1 main@bb85.i_0))
                main@bb70.i_1
                (=> (and main@bb70.i_1 main@bb85.i_0)
                    (= main@%x.0.i_1 main@%tmp87.i_0))
                (=> (and main@bb70.i_1 main@bb85.i_0)
                    (= main@%x.0.i_2 main@%x.0.i_1)))))
  (=> a!2
      (main@bb70.i main@%tmp8.i_0
                   main@%shadow.mem.0_0
                   main@%largest1.1.i_0
                   main@%largest2.1.i_0
                   main@%x.0.i_2
                   main@%tmp2.i_0)))))
(rule (=> (and (main@bb70.i main@%tmp8.i_0
                      main@%shadow.mem.0_0
                      main@%largest1.1.i_0
                      main@%largest2.1.i_0
                      main@%x.0.i_0
                      main@%tmp2.i_0)
         true
         (= main@%tmp73.i_0 (< main@%x.0.i_0 main@%tmp2.i_0))
         (=> main@bb89.i_0 (and main@bb89.i_0 main@bb70.i_0))
         main@bb89.i_0
         (=> (and main@bb89.i_0 main@bb70.i_0) (not main@%tmp73.i_0))
         (=> (and main@bb89.i_0 main@bb70.i_0) (= main@%x.1.i_0 0))
         (=> (and main@bb89.i_0 main@bb70.i_0) (= main@%x.1.i_1 main@%x.1.i_0)))
    (main@bb89.i main@%tmp8.i_0
                 main@%shadow.mem.0_0
                 main@%largest1.1.i_0
                 main@%largest2.1.i_0
                 main@%x.1.i_1
                 main@%tmp2.i_0)))
(rule (let ((a!1 (=> main@bb74.i_0
               (= main@%tmp76.i_0 (+ main@%tmp8.i_0 (* main@%x.0.i_0 1))))))
(let ((a!2 (and (main@bb70.i main@%tmp8.i_0
                             main@%shadow.mem.0_0
                             main@%largest1.1.i_0
                             main@%largest2.1.i_0
                             main@%x.0.i_0
                             main@%tmp2.i_0)
                true
                (= main@%tmp73.i_0 (< main@%x.0.i_0 main@%tmp2.i_0))
                (=> main@bb74.i_0 (and main@bb74.i_0 main@bb70.i_0))
                (=> (and main@bb74.i_0 main@bb70.i_0) main@%tmp73.i_0)
                a!1
                (=> main@bb74.i_0
                    (or (<= main@%tmp8.i_0 0) (> main@%tmp76.i_0 0)))
                (=> main@bb74.i_0 (> main@%tmp8.i_0 0))
                (=> main@bb74.i_0
                    (= main@%tmp77.i_0
                       (select main@%shadow.mem.0_0 main@%tmp76.i_0)))
                (=> main@bb74.i_0 (= main@%tmp78.i_0 main@%tmp77.i_0))
                (=> main@bb74.i_0
                    (= main@%tmp80.i_0 (> main@%tmp78.i_0 main@%largest1.1.i_0)))
                (=> main@bb81.i_0 (and main@bb81.i_0 main@bb74.i_0))
                (=> (and main@bb81.i_0 main@bb74.i_0) main@%tmp80.i_0)
                (=> main@verifier.error_0
                    (and main@verifier.error_0 main@bb81.i_0))
                (=> main@verifier.error.split_0
                    (and main@verifier.error.split_0 main@verifier.error_0))
                main@verifier.error.split_0)))
  (=> a!2 main@verifier.error.split))))
(rule (let ((a!1 (=> main@bb93.i_0
               (= main@%tmp95.i_0 (+ main@%tmp8.i_0 (* main@%x.1.i_0 1)))))
      (a!2 (=> main@bb100.i_0
               (= main@%tmp102.i_0 (+ main@%tmp8.i_0 (* main@%x.1.i_0 1))))))
(let ((a!3 (and (main@bb89.i main@%tmp8.i_0
                             main@%shadow.mem.0_0
                             main@%largest1.1.i_0
                             main@%largest2.1.i_0
                             main@%x.1.i_0
                             main@%tmp2.i_0)
                true
                (= main@%tmp92.i_0 (< main@%x.1.i_0 main@%tmp2.i_0))
                main@%tmp92.i_0
                (=> main@bb93.i_0 (and main@bb93.i_0 main@bb89.i_0))
                a!1
                (=> main@bb93.i_0
                    (or (<= main@%tmp8.i_0 0) (> main@%tmp95.i_0 0)))
                (=> main@bb93.i_0 (> main@%tmp8.i_0 0))
                (=> main@bb93.i_0
                    (= main@%tmp96.i_0
                       (select main@%shadow.mem.0_0 main@%tmp95.i_0)))
                (=> main@bb93.i_0 (= main@%tmp97.i_0 main@%tmp96.i_0))
                (=> main@bb93.i_0
                    (= main@%tmp99.i_0 (> main@%tmp97.i_0 main@%largest2.1.i_0)))
                (=> main@bb100.i_0 (and main@bb100.i_0 main@bb93.i_0))
                (=> (and main@bb100.i_0 main@bb93.i_0) main@%tmp99.i_0)
                a!2
                (=> main@bb100.i_0
                    (or (<= main@%tmp8.i_0 0) (> main@%tmp102.i_0 0)))
                (=> main@bb100.i_0 (> main@%tmp8.i_0 0))
                (=> main@bb100.i_0
                    (= main@%tmp103.i_0
                       (select main@%shadow.mem.0_0 main@%tmp102.i_0)))
                (=> main@bb100.i_0 (= main@%tmp104.i_0 main@%tmp103.i_0))
                (=> main@bb100.i_0
                    (= main@%tmp106.i_0
                       (= main@%tmp104.i_0 main@%largest1.1.i_0)))
                (=> |tuple(main@bb100.i_0, main@bb111.i_0)| main@bb100.i_0)
                (=> |tuple(main@bb93.i_0, main@bb111.i_0)| main@bb93.i_0)
                (=> main@bb111.i_0
                    (or (and main@bb100.i_0
                             |tuple(main@bb100.i_0, main@bb111.i_0)|)
                        (and main@bb93.i_0
                             |tuple(main@bb93.i_0, main@bb111.i_0)|)))
                (=> (and main@bb100.i_0 |tuple(main@bb100.i_0, main@bb111.i_0)|)
                    main@%tmp106.i_0)
                (=> (and main@bb93.i_0 |tuple(main@bb93.i_0, main@bb111.i_0)|)
                    (not main@%tmp99.i_0))
                (=> main@bb111.i_0 (= main@%tmp113.i_0 (+ main@%x.1.i_0 1)))
                (=> main@bb89.i_1 (and main@bb89.i_1 main@bb111.i_0))
                main@bb89.i_1
                (=> (and main@bb89.i_1 main@bb111.i_0)
                    (= main@%x.1.i_1 main@%tmp113.i_0))
                (=> (and main@bb89.i_1 main@bb111.i_0)
                    (= main@%x.1.i_2 main@%x.1.i_1)))))
  (=> a!3
      (main@bb89.i main@%tmp8.i_0
                   main@%shadow.mem.0_0
                   main@%largest1.1.i_0
                   main@%largest2.1.i_0
                   main@%x.1.i_2
                   main@%tmp2.i_0)))))
(rule (let ((a!1 (=> main@bb93.i_0
               (= main@%tmp95.i_0 (+ main@%tmp8.i_0 (* main@%x.1.i_0 1)))))
      (a!2 (=> main@bb100.i_0
               (= main@%tmp102.i_0 (+ main@%tmp8.i_0 (* main@%x.1.i_0 1))))))
(let ((a!3 (and (main@bb89.i main@%tmp8.i_0
                             main@%shadow.mem.0_0
                             main@%largest1.1.i_0
                             main@%largest2.1.i_0
                             main@%x.1.i_0
                             main@%tmp2.i_0)
                true
                (= main@%tmp92.i_0 (< main@%x.1.i_0 main@%tmp2.i_0))
                main@%tmp92.i_0
                (=> main@bb93.i_0 (and main@bb93.i_0 main@bb89.i_0))
                a!1
                (=> main@bb93.i_0
                    (or (<= main@%tmp8.i_0 0) (> main@%tmp95.i_0 0)))
                (=> main@bb93.i_0 (> main@%tmp8.i_0 0))
                (=> main@bb93.i_0
                    (= main@%tmp96.i_0
                       (select main@%shadow.mem.0_0 main@%tmp95.i_0)))
                (=> main@bb93.i_0 (= main@%tmp97.i_0 main@%tmp96.i_0))
                (=> main@bb93.i_0
                    (= main@%tmp99.i_0 (> main@%tmp97.i_0 main@%largest2.1.i_0)))
                (=> main@bb100.i_0 (and main@bb100.i_0 main@bb93.i_0))
                (=> (and main@bb100.i_0 main@bb93.i_0) main@%tmp99.i_0)
                a!2
                (=> main@bb100.i_0
                    (or (<= main@%tmp8.i_0 0) (> main@%tmp102.i_0 0)))
                (=> main@bb100.i_0 (> main@%tmp8.i_0 0))
                (=> main@bb100.i_0
                    (= main@%tmp103.i_0
                       (select main@%shadow.mem.0_0 main@%tmp102.i_0)))
                (=> main@bb100.i_0 (= main@%tmp104.i_0 main@%tmp103.i_0))
                (=> main@bb100.i_0
                    (= main@%tmp106.i_0
                       (= main@%tmp104.i_0 main@%largest1.1.i_0)))
                (=> main@bb107.i_0 (and main@bb107.i_0 main@bb100.i_0))
                (=> (and main@bb107.i_0 main@bb100.i_0) (not main@%tmp106.i_0))
                (=> main@verifier.error_0
                    (and main@verifier.error_0 main@bb107.i_0))
                (=> main@verifier.error.split_0
                    (and main@verifier.error.split_0 main@verifier.error_0))
                main@verifier.error.split_0)))
  (=> a!3 main@verifier.error.split))))
(query main@verifier.error.split)

